10 123
28 148
28 120
55 59
57 3
17 129
23 20
12 60
90 40
1 140
47 40
22 50
52 41
76 13
96 39
14 163
7 167
3 69
10 143
33 10
36 55
16 64
64 34
85 66
29 182
99 35
65 43
12 163
58 88
41 46
60 6
30 46
16 16
45 130
26 83
66 15
23 47
88 19
71 5
30 18
40 5
60 48
54 44
48 6
18 72
16 3
28 3
97 41
9 167
34 103
